Route #1:
Route #2: 14 19 31 11 6 29 20 27
Route #3: 15 18 4 3 16 1
Route #4: 30 12 24
Route #5: 23 2 13
Route #6: 17 8 7
Route #7: 21
Route #8: 10 26
Route #9: 25 22 5 28 9

Cost: 1899.2642562175827
